69 81
16 17
45 1
45 26 2
61 2 46
3 49 25
48 4 24
67 48 4
23 5
23 5
59 6 38
7 39
36 8 58
36 56 9
18 9
10 33 56
10 41
33 53 11
19 11
12 53 32
42 12
29 32 13
20 13
29 51 14
22 14
28 51 15
28 27 15 44
16 81
62 61
62 63 76
71 80
72 73
75 76
77 76
21 20
22 30
23 24
66 24 25
26 25
31 26 64
31 27 71
71 28
30 29
30 31
78 31 35
75 32 34
33 34
34 35
37 70 35
37 36
37 38 68
38 39
40 39
54 42 43
72 43
74 44
45 52
46 47
48 49
65 61 50 49
52 50
75 51 52
55 52 79
54 53
55 54 72
55 57
57 56
57 58 69
59 58
59 60
